NAME 
OBJSENSE MAX
ROWS
 N  OBJ
 L  packing[0]
 L  packing[1]
 L  packing[2]
 L  packing[3]
 L  packing[4]
 L  packing[5]
 L  packing[6]
 L  packing[7]
 L  packing[8]
 L  packing[9]
 L  packing[10]
 L  packing[11]
 L  packing[12]
 L  packing[13]
 L  packing[14]
 L  packing[15]
 L  packing[16]
 L  packing[17]
 L  packing[18]
 L  packing[19]
 L  packing[20]
 L  packing[21]
 L  packing[22]
 L  packing[23]
 L  packing[24]
 L  packing[25]
 L  packing[26]
 L  packing[27]
 L  packing[28]
 L  packing[29]
 L  packing[30]
 L  packing[31]
 L  packing[32]
 L  packing[33]
 L  packing[34]
 L  packing[35]
 L  packing[36]
 L  packing[37]
 L  packing[38]
 L  packing[39]
 L  packing[40]
 L  packing[41]
 L  packing[42]
 L  packing[43]
 L  packing[44]
 L  packing[45]
 L  packing[46]
 L  packing[47]
 L  packing[48]
 L  packing[49]
 L  R58     
 L  R59     
 L  R60     
 L  R61     
 L  R62     
 L  R63     
 L  R64     
 L  R65     
COLUMNS
    MARKER    'MARKER'                 'INTORG'
    x[1]      OBJ       181
    x[1]      packing[0]  25
    x[1]      packing[1]  72
    x[1]      packing[2]  182
    x[1]      packing[4]  133
    x[1]      packing[5]  21
    x[1]      packing[6]  133
    x[1]      packing[7]  13
    x[1]      packing[8]  98
    x[1]      packing[9]  154
    x[1]      packing[10]  157
    x[1]      packing[11]  78
    x[1]      packing[12]  129
    x[1]      packing[13]  66
    x[1]      packing[15]  93
    x[1]      packing[17]  189
    x[1]      packing[18]  197
    x[1]      packing[21]  40
    x[1]      packing[23]  188
    x[1]      packing[24]  180
    x[1]      packing[26]  115
    x[1]      packing[27]  53
    x[1]      packing[28]  106
    x[1]      packing[30]  188
    x[1]      packing[31]  152
    x[1]      packing[32]  95
    x[1]      packing[33]  164
    x[1]      packing[36]  38
    x[1]      packing[37]  196
    x[1]      packing[38]  27
    x[1]      packing[39]  183
    x[1]      packing[40]  163
    x[1]      packing[41]  141
    x[1]      packing[42]  124
    x[1]      packing[44]  74
    x[1]      packing[46]  122
    x[1]      packing[47]  125
    x[1]      R58       1
    x[1]      R60       1
    x[1]      R62       1
    x[1]      R63       1
    x[1]      R64       1
    x[2]      OBJ       102
    x[2]      packing[0]  197
    x[2]      packing[1]  34
    x[2]      packing[3]  143
    x[2]      packing[4]  55
    x[2]      packing[5]  127
    x[2]      packing[6]  82
    x[2]      packing[7]  73
    x[2]      packing[9]  56
    x[2]      packing[10]  99
    x[2]      packing[11]  197
    x[2]      packing[13]  87
    x[2]      packing[14]  65
    x[2]      packing[15]  97
    x[2]      packing[16]  106
    x[2]      packing[19]  100
    x[2]      packing[20]  1
    x[2]      packing[21]  175
    x[2]      packing[23]  82
    x[2]      packing[24]  103
    x[2]      packing[29]  175
    x[2]      packing[31]  21
    x[2]      packing[32]  22
    x[2]      packing[33]  81
    x[2]      packing[36]  42
    x[2]      packing[38]  155
    x[2]      packing[39]  14
    x[2]      packing[40]  156
    x[2]      packing[41]  85
    x[2]      packing[43]  146
    x[2]      packing[44]  68
    x[2]      packing[45]  81
    x[2]      packing[46]  163
    x[2]      packing[47]  13
    x[2]      packing[48]  184
    x[2]      packing[49]  47
    x[2]      R62       1
    x[2]      R65       1
    x[3]      OBJ       151
    x[3]      packing[0]  112
    x[3]      packing[1]  31
    x[3]      packing[2]  172
    x[3]      packing[3]  142
    x[3]      packing[4]  180
    x[3]      packing[5]  160
    x[3]      packing[6]  189
    x[3]      packing[7]  92
    x[3]      packing[11]  58
    x[3]      packing[12]  184
    x[3]      packing[13]  138
    x[3]      packing[14]  170
    x[3]      packing[15]  37
    x[3]      packing[18]  42
    x[3]      packing[19]  174
    x[3]      packing[20]  26
    x[3]      packing[22]  53
    x[3]      packing[23]  26
    x[3]      packing[24]  170
    x[3]      packing[26]  48
    x[3]      packing[27]  119
    x[3]      packing[28]  27
    x[3]      packing[29]  47
    x[3]      packing[30]  168
    x[3]      packing[32]  137
    x[3]      packing[33]  126
    x[3]      packing[35]  162
    x[3]      packing[36]  129
    x[3]      packing[38]  149
    x[3]      packing[39]  10
    x[3]      packing[41]  164
    x[3]      packing[42]  8
    x[3]      packing[43]  15
    x[3]      packing[44]  95
    x[3]      packing[45]  174
    x[3]      packing[48]  59
    x[3]      packing[49]  152
    x[4]      OBJ       49
    x[4]      packing[1]  69
    x[4]      packing[2]  33
    x[4]      packing[3]  64
    x[4]      packing[6]  79
    x[4]      packing[7]  74
    x[4]      packing[8]  113
    x[4]      packing[9]  95
    x[4]      packing[10]  22
    x[4]      packing[11]  105
    x[4]      packing[12]  4
    x[4]      packing[13]  27
    x[4]      packing[15]  82
    x[4]      packing[16]  133
    x[4]      packing[17]  83
    x[4]      packing[18]  18
    x[4]      packing[20]  193
    x[4]      packing[21]  90
    x[4]      packing[22]  149
    x[4]      packing[23]  98
    x[4]      packing[24]  48
    x[4]      packing[28]  107
    x[4]      packing[30]  140
    x[4]      packing[31]  18
    x[4]      packing[32]  3
    x[4]      packing[33]  84
    x[4]      packing[34]  158
    x[4]      packing[37]  19
    x[4]      packing[39]  113
    x[4]      packing[41]  154
    x[4]      packing[42]  100
    x[4]      packing[44]  89
    x[4]      packing[45]  43
    x[4]      packing[46]  16
    x[4]      packing[47]  42
    x[4]      packing[48]  180
    x[4]      packing[49]  154
    x[5]      OBJ       1
    x[5]      packing[1]  56
    x[5]      packing[2]  162
    x[5]      packing[4]  31
    x[5]      packing[9]  73
    x[5]      packing[10]  5
    x[5]      packing[12]  178
    x[5]      packing[13]  18
    x[5]      packing[14]  184
    x[5]      packing[15]  146
    x[5]      packing[17]  166
    x[5]      packing[18]  97
    x[5]      packing[19]  91
    x[5]      packing[20]  45
    x[5]      packing[21]  159
    x[5]      packing[22]  33
    x[5]      packing[23]  170
    x[5]      packing[25]  69
    x[5]      packing[26]  186
    x[5]      packing[30]  112
    x[5]      packing[31]  152
    x[5]      packing[33]  3
    x[5]      packing[36]  79
    x[5]      packing[37]  61
    x[5]      packing[38]  172
    x[5]      packing[39]  116
    x[5]      packing[40]  25
    x[5]      packing[41]  122
    x[5]      packing[42]  185
    x[5]      packing[45]  14
    x[5]      packing[46]  166
    x[5]      packing[48]  103
    x[5]      packing[49]  91
    x[6]      OBJ       73
    x[6]      packing[1]  124
    x[6]      packing[2]  37
    x[6]      packing[3]  133
    x[6]      packing[4]  155
    x[6]      packing[5]  198
    x[6]      packing[6]  134
    x[6]      packing[8]  71
    x[6]      packing[9]  52
    x[6]      packing[10]  198
    x[6]      packing[12]  116
    x[6]      packing[13]  195
    x[6]      packing[14]  58
    x[6]      packing[15]  197
    x[6]      packing[16]  6
    x[6]      packing[17]  81
    x[6]      packing[18]  55
    x[6]      packing[19]  71
    x[6]      packing[20]  53
    x[6]      packing[23]  198
    x[6]      packing[25]  135
    x[6]      packing[29]  26
    x[6]      packing[31]  120
    x[6]      packing[32]  5
    x[6]      packing[33]  143
    x[6]      packing[35]  145
    x[6]      packing[37]  61
    x[6]      packing[38]  7
    x[6]      packing[41]  106
    x[6]      packing[43]  181
    x[6]      packing[44]  37
    x[6]      packing[46]  155
    x[6]      packing[47]  110
    x[6]      packing[48]  46
    x[6]      packing[49]  125
    x[7]      OBJ       58
    x[7]      packing[1]  107
    x[7]      packing[3]  7
    x[7]      packing[4]  68
    x[7]      packing[5]  136
    x[7]      packing[6]  46
    x[7]      packing[7]  154
    x[7]      packing[8]  173
    x[7]      packing[9]  78
    x[7]      packing[12]  127
    x[7]      packing[13]  158
    x[7]      packing[16]  150
    x[7]      packing[17]  64
    x[7]      packing[18]  101
    x[7]      packing[19]  19
    x[7]      packing[20]  117
    x[7]      packing[23]  194
    x[7]      packing[25]  143
    x[7]      packing[26]  45
    x[7]      packing[27]  127
    x[7]      packing[31]  49
    x[7]      packing[33]  185
    x[7]      packing[34]  131
    x[7]      packing[35]  157
    x[7]      packing[36]  170
    x[7]      packing[37]  149
    x[7]      packing[39]  132
    x[7]      packing[40]  151
    x[7]      packing[43]  149
    x[7]      packing[44]  66
    x[7]      packing[45]  81
    x[7]      packing[46]  191
    x[7]      packing[47]  70
    x[7]      packing[48]  131
    x[8]      OBJ       96
    x[8]      packing[0]  161
    x[8]      packing[2]  156
    x[8]      packing[3]  192
    x[8]      packing[5]  59
    x[8]      packing[6]  128
    x[8]      packing[7]  199
    x[8]      packing[8]  35
    x[8]      packing[9]  152
    x[8]      packing[10]  176
    x[8]      packing[11]  98
    x[8]      packing[12]  125
    x[8]      packing[13]  122
    x[8]      packing[15]  87
    x[8]      packing[16]  145
    x[8]      packing[17]  118
    x[8]      packing[18]  158
    x[8]      packing[19]  179
    x[8]      packing[20]  176
    x[8]      packing[22]  51
    x[8]      packing[24]  139
    x[8]      packing[25]  34
    x[8]      packing[26]  85
    x[8]      packing[28]  99
    x[8]      packing[29]  63
    x[8]      packing[30]  15
    x[8]      packing[31]  181
    x[8]      packing[32]  161
    x[8]      packing[33]  18
    x[8]      packing[34]  176
    x[8]      packing[36]  90
    x[8]      packing[37]  172
    x[8]      packing[39]  15
    x[8]      packing[40]  59
    x[8]      packing[41]  140
    x[8]      packing[42]  129
    x[8]      packing[44]  171
    x[8]      packing[45]  157
    x[8]      packing[46]  114
    x[8]      packing[47]  196
    x[8]      packing[48]  172
    x[8]      packing[49]  66
    x[9]      OBJ       86
    x[9]      packing[0]  170
    x[9]      packing[1]  27
    x[9]      packing[2]  81
    x[9]      packing[3]  28
    x[9]      packing[4]  100
    x[9]      packing[5]  12
    x[9]      packing[10]  186
    x[9]      packing[11]  197
    x[9]      packing[12]  191
    x[9]      packing[13]  144
    x[9]      packing[14]  191
    x[9]      packing[15]  77
    x[9]      packing[16]  113
    x[9]      packing[17]  146
    x[9]      packing[18]  175
    x[9]      packing[19]  180
    x[9]      packing[20]  73
    x[9]      packing[21]  134
    x[9]      packing[22]  75
    x[9]      packing[24]  60
    x[9]      packing[25]  50
    x[9]      packing[26]  65
    x[9]      packing[27]  174
    x[9]      packing[28]  65
    x[9]      packing[29]  65
    x[9]      packing[30]  168
    x[9]      packing[32]  7
    x[9]      packing[34]  137
    x[9]      packing[36]  5
    x[9]      packing[37]  31
    x[9]      packing[40]  130
    x[9]      packing[41]  163
    x[9]      packing[42]  171
    x[9]      packing[45]  61
    x[9]      packing[46]  102
    x[9]      packing[47]  49
    x[9]      packing[48]  6
    x[9]      R58       1
    x[9]      R61       1
    x[9]      R64       1
    x[10]     OBJ       154
    x[10]     packing[0]  184
    x[10]     packing[1]  1
    x[10]     packing[2]  117
    x[10]     packing[3]  159
    x[10]     packing[5]  150
    x[10]     packing[6]  124
    x[10]     packing[7]  10
    x[10]     packing[8]  121
    x[10]     packing[12]  76
    x[10]     packing[13]  183
    x[10]     packing[15]  172
    x[10]     packing[16]  13
    x[10]     packing[18]  61
    x[10]     packing[19]  52
    x[10]     packing[21]  103
    x[10]     packing[22]  141
    x[10]     packing[23]  98
    x[10]     packing[24]  154
    x[10]     packing[25]  177
    x[10]     packing[26]  156
    x[10]     packing[29]  169
    x[10]     packing[32]  62
    x[10]     packing[33]  160
    x[10]     packing[34]  68
    x[10]     packing[37]  40
    x[10]     packing[40]  33
    x[10]     packing[41]  71
    x[10]     packing[42]  171
    x[10]     packing[43]  108
    x[10]     packing[44]  99
    x[10]     packing[45]  28
    x[10]     packing[46]  63
    x[10]     packing[47]  3
    x[10]     packing[49]  113
    x[10]     R59       1
    x[10]     R60       1
    x[10]     R61       1
    x[10]     R64       1
    x[10]     R65       1
    x[11]     OBJ       20
    x[11]     packing[0]  158
    x[11]     packing[2]  27
    x[11]     packing[5]  79
    x[11]     packing[6]  76
    x[11]     packing[7]  139
    x[11]     packing[8]  88
    x[11]     packing[9]  188
    x[11]     packing[10]  93
    x[11]     packing[12]  77
    x[11]     packing[13]  163
    x[11]     packing[14]  118
    x[11]     packing[15]  164
    x[11]     packing[16]  78
    x[11]     packing[17]  147
    x[11]     packing[19]  6
    x[11]     packing[20]  2
    x[11]     packing[21]  134
    x[11]     packing[24]  103
    x[11]     packing[25]  12
    x[11]     packing[26]  102
    x[11]     packing[28]  131
    x[11]     packing[29]  133
    x[11]     packing[30]  61
    x[11]     packing[31]  65
    x[11]     packing[33]  164
    x[11]     packing[34]  139
    x[11]     packing[35]  80
    x[11]     packing[36]  40
    x[11]     packing[37]  20
    x[11]     packing[38]  154
    x[11]     packing[40]  109
    x[11]     packing[41]  27
    x[11]     packing[42]  87
    x[11]     packing[44]  179
    x[11]     packing[46]  114
    x[11]     packing[47]  75
    x[11]     packing[48]  198
    x[12]     OBJ       154
    x[12]     packing[0]  113
    x[12]     packing[1]  76
    x[12]     packing[4]  65
    x[12]     packing[5]  96
    x[12]     packing[6]  177
    x[12]     packing[7]  60
    x[12]     packing[9]  112
    x[12]     packing[10]  179
    x[12]     packing[11]  33
    x[12]     packing[12]  52
    x[12]     packing[13]  109
    x[12]     packing[14]  126
    x[12]     packing[15]  82
    x[12]     packing[16]  62
    x[12]     packing[19]  190
    x[12]     packing[20]  87
    x[12]     packing[21]  122
    x[12]     packing[24]  179
    x[12]     packing[25]  75
    x[12]     packing[27]  54
    x[12]     packing[29]  179
    x[12]     packing[30]  78
    x[12]     packing[31]  136
    x[12]     packing[32]  181
    x[12]     packing[34]  88
    x[12]     packing[35]  88
    x[12]     packing[36]  131
    x[12]     packing[37]  51
    x[12]     packing[38]  101
    x[12]     packing[39]  85
    x[12]     packing[40]  103
    x[12]     packing[41]  5
    x[12]     packing[42]  100
    x[12]     packing[43]  112
    x[12]     packing[44]  58
    x[12]     packing[46]  43
    x[12]     packing[47]  33
    x[12]     packing[49]  95
    x[12]     R58       1
    x[12]     R60       1
    x[12]     R61       1
    x[12]     R62       1
    x[12]     R63       1
    x[12]     R64       1
    x[12]     R65       1
    x[13]     OBJ       115
    x[13]     packing[0]  86
    x[13]     packing[1]  18
    x[13]     packing[2]  44
    x[13]     packing[3]  196
    x[13]     packing[4]  67
    x[13]     packing[5]  98
    x[13]     packing[6]  156
    x[13]     packing[7]  35
    x[13]     packing[9]  44
    x[13]     packing[10]  69
    x[13]     packing[12]  1
    x[13]     packing[13]  41
    x[13]     packing[16]  53
    x[13]     packing[17]  20
    x[13]     packing[19]  21
    x[13]     packing[20]  40
    x[13]     packing[22]  63
    x[13]     packing[24]  3
    x[13]     packing[25]  21
    x[13]     packing[26]  151
    x[13]     packing[27]  44
    x[13]     packing[30]  136
    x[13]     packing[32]  68
    x[13]     packing[34]  189
    x[13]     packing[35]  137
    x[13]     packing[36]  8
    x[13]     packing[37]  139
    x[13]     packing[38]  162
    x[13]     packing[39]  119
    x[13]     packing[41]  90
    x[13]     packing[42]  105
    x[13]     packing[43]  68
    x[13]     packing[44]  74
    x[13]     packing[46]  61
    x[13]     packing[47]  119
    x[13]     packing[48]  173
    x[13]     R58       1
    x[13]     R59       1
    x[13]     R60       1
    x[13]     R61       1
    x[13]     R62       1
    x[13]     R63       1
    x[13]     R64       1
    x[13]     R65       1
    x[14]     OBJ       136
    x[14]     packing[0]  13
    x[14]     packing[2]  173
    x[14]     packing[4]  19
    x[14]     packing[5]  112
    x[14]     packing[6]  38
    x[14]     packing[8]  127
    x[14]     packing[9]  3
    x[14]     packing[10]  50
    x[14]     packing[11]  154
    x[14]     packing[12]  56
    x[14]     packing[15]  25
    x[14]     packing[19]  186
    x[14]     packing[20]  116
    x[14]     packing[21]  144
    x[14]     packing[22]  162
    x[14]     packing[23]  195
    x[14]     packing[25]  117
    x[14]     packing[26]  85
    x[14]     packing[27]  114
    x[14]     packing[28]  23
    x[14]     packing[30]  19
    x[14]     packing[31]  124
    x[14]     packing[33]  54
    x[14]     packing[35]  199
    x[14]     packing[36]  189
    x[14]     packing[37]  153
    x[14]     packing[38]  137
    x[14]     packing[39]  90
    x[14]     packing[40]  190
    x[14]     packing[42]  182
    x[14]     packing[43]  130
    x[14]     packing[45]  192
    x[14]     packing[47]  114
    x[14]     packing[48]  158
    x[14]     packing[49]  62
    x[14]     R59       1
    x[14]     R62       1
    x[14]     R63       1
    x[14]     R64       1
    x[14]     R65       1
    x[15]     OBJ       139
    x[15]     packing[0]  81
    x[15]     packing[1]  156
    x[15]     packing[3]  152
    x[15]     packing[4]  119
    x[15]     packing[5]  3
    x[15]     packing[8]  91
    x[15]     packing[9]  171
    x[15]     packing[10]  22
    x[15]     packing[11]  90
    x[15]     packing[12]  135
    x[15]     packing[14]  31
    x[15]     packing[15]  151
    x[15]     packing[16]  16
    x[15]     packing[17]  108
    x[15]     packing[18]  8
    x[15]     packing[20]  85
    x[15]     packing[21]  147
    x[15]     packing[23]  55
    x[15]     packing[24]  182
    x[15]     packing[25]  177
    x[15]     packing[26]  151
    x[15]     packing[27]  34
    x[15]     packing[29]  134
    x[15]     packing[30]  112
    x[15]     packing[32]  97
    x[15]     packing[33]  135
    x[15]     packing[34]  66
    x[15]     packing[35]  10
    x[15]     packing[36]  36
    x[15]     packing[37]  152
    x[15]     packing[40]  190
    x[15]     packing[41]  9
    x[15]     packing[43]  189
    x[15]     packing[44]  18
    x[15]     packing[45]  119
    x[15]     packing[46]  137
    x[15]     packing[47]  22
    x[15]     packing[49]  96
    x[15]     R60       1
    x[16]     OBJ       88
    x[16]     packing[1]  134
    x[16]     packing[2]  60
    x[16]     packing[3]  179
    x[16]     packing[5]  108
    x[16]     packing[6]  48
    x[16]     packing[7]  11
    x[16]     packing[8]  44
    x[16]     packing[9]  81
    x[16]     packing[10]  141
    x[16]     packing[11]  191
    x[16]     packing[12]  134
    x[16]     packing[13]  146
    x[16]     packing[14]  184
    x[16]     packing[16]  133
    x[16]     packing[17]  125
    x[16]     packing[20]  7
    x[16]     packing[21]  136
    x[16]     packing[22]  175
    x[16]     packing[23]  45
    x[16]     packing[26]  11
    x[16]     packing[27]  166
    x[16]     packing[28]  150
    x[16]     packing[29]  71
    x[16]     packing[30]  86
    x[16]     packing[35]  187
    x[16]     packing[36]  161
    x[16]     packing[37]  65
    x[16]     packing[38]  82
    x[16]     packing[39]  176
    x[16]     packing[40]  95
    x[16]     packing[45]  85
    x[16]     packing[46]  87
    x[16]     packing[47]  28
    x[16]     packing[48]  120
    x[16]     packing[49]  112
    x[16]     R59       1
    x[16]     R63       1
    x[17]     OBJ       146
    x[17]     packing[0]  127
    x[17]     packing[2]  126
    x[17]     packing[3]  190
    x[17]     packing[4]  161
    x[17]     packing[6]  190
    x[17]     packing[7]  34
    x[17]     packing[8]  112
    x[17]     packing[10]  193
    x[17]     packing[11]  104
    x[17]     packing[12]  162
    x[17]     packing[13]  198
    x[17]     packing[17]  37
    x[17]     packing[18]  40
    x[17]     packing[19]  183
    x[17]     packing[21]  161
    x[17]     packing[22]  46
    x[17]     packing[23]  160
    x[17]     packing[25]  115
    x[17]     packing[26]  36
    x[17]     packing[27]  39
    x[17]     packing[29]  66
    x[17]     packing[30]  9
    x[17]     packing[31]  24
    x[17]     packing[32]  144
    x[17]     packing[33]  196
    x[17]     packing[35]  11
    x[17]     packing[36]  176
    x[17]     packing[37]  100
    x[17]     packing[38]  145
    x[17]     packing[39]  71
    x[17]     packing[40]  154
    x[17]     packing[43]  169
    x[17]     packing[44]  191
    x[17]     packing[46]  25
    x[17]     packing[47]  80
    x[17]     packing[48]  78
    x[17]     R58       1
    x[17]     R59       1
    x[17]     R60       1
    x[17]     R62       1
    x[17]     R65       1
    x[18]     OBJ       111
    x[18]     packing[1]  140
    x[18]     packing[2]  131
    x[18]     packing[3]  189
    x[18]     packing[5]  73
    x[18]     packing[6]  144
    x[18]     packing[9]  49
    x[18]     packing[10]  48
    x[18]     packing[11]  69
    x[18]     packing[13]  102
    x[18]     packing[14]  95
    x[18]     packing[15]  132
    x[18]     packing[16]  59
    x[18]     packing[17]  98
    x[18]     packing[18]  45
    x[18]     packing[20]  119
    x[18]     packing[21]  40
    x[18]     packing[22]  144
    x[18]     packing[23]  15
    x[18]     packing[24]  73
    x[18]     packing[25]  48
    x[18]     packing[26]  149
    x[18]     packing[29]  90
    x[18]     packing[30]  66
    x[18]     packing[31]  40
    x[18]     packing[32]  149
    x[18]     packing[33]  36
    x[18]     packing[36]  93
    x[18]     packing[37]  124
    x[18]     packing[40]  18
    x[18]     packing[41]  13
    x[18]     packing[42]  159
    x[18]     packing[43]  52
    x[18]     packing[44]  10
    x[18]     packing[45]  153
    x[18]     packing[46]  176
    x[18]     packing[47]  151
    x[18]     packing[48]  53
    x[18]     packing[49]  73
    x[19]     OBJ       101
    x[19]     packing[0]  18
    x[19]     packing[1]  190
    x[19]     packing[2]  197
    x[19]     packing[3]  56
    x[19]     packing[4]  117
    x[19]     packing[5]  84
    x[19]     packing[6]  198
    x[19]     packing[7]  69
    x[19]     packing[10]  162
    x[19]     packing[11]  106
    x[19]     packing[12]  93
    x[19]     packing[13]  122
    x[19]     packing[14]  165
    x[19]     packing[15]  83
    x[19]     packing[17]  147
    x[19]     packing[19]  163
    x[19]     packing[20]  136
    x[19]     packing[21]  193
    x[19]     packing[22]  18
    x[19]     packing[24]  131
    x[19]     packing[25]  143
    x[19]     packing[26]  21
    x[19]     packing[30]  188
    x[19]     packing[31]  68
    x[19]     packing[34]  197
    x[19]     packing[35]  33
    x[19]     packing[36]  14
    x[19]     packing[38]  88
    x[19]     packing[41]  90
    x[19]     packing[42]  103
    x[19]     packing[43]  63
    x[19]     packing[45]  32
    x[19]     packing[46]  73
    x[19]     packing[48]  85
    x[19]     packing[49]  172
    x[19]     R58       1
    x[19]     R61       1
    x[19]     R64       1
    x[20]     OBJ       50
    x[20]     packing[0]  131
    x[20]     packing[2]  67
    x[20]     packing[3]  160
    x[20]     packing[4]  9
    x[20]     packing[5]  145
    x[20]     packing[6]  130
    x[20]     packing[7]  8
    x[20]     packing[8]  148
    x[20]     packing[9]  49
    x[20]     packing[10]  160
    x[20]     packing[12]  110
    x[20]     packing[13]  126
    x[20]     packing[14]  76
    x[20]     packing[15]  179
    x[20]     packing[16]  80
    x[20]     packing[17]  194
    x[20]     packing[18]  170
    x[20]     packing[19]  156
    x[20]     packing[20]  180
    x[20]     packing[21]  119
    x[20]     packing[23]  140
    x[20]     packing[24]  59
    x[20]     packing[26]  157
    x[20]     packing[27]  60
    x[20]     packing[28]  85
    x[20]     packing[29]  133
    x[20]     packing[30]  68
    x[20]     packing[31]  175
    x[20]     packing[32]  129
    x[20]     packing[35]  91
    x[20]     packing[36]  7
    x[20]     packing[37]  128
    x[20]     packing[38]  30
    x[20]     packing[39]  116
    x[20]     packing[40]  59
    x[20]     packing[41]  61
    x[20]     packing[42]  188
    x[20]     packing[44]  26
    x[20]     packing[45]  15
    x[20]     packing[46]  197
    x[20]     packing[47]  108
    x[20]     packing[48]  181
    MARKER    'MARKER'                 'INTEND'
RHS
    RHS1      packing[0]  788
    RHS1      packing[1]  618
    RHS1      packing[2]  883
    RHS1      packing[3]  995
    RHS1      packing[4]  640
    RHS1      packing[5]  831
    RHS1      packing[6]  1036
    RHS1      packing[7]  486
    RHS1      packing[8]  611
    RHS1      packing[9]  679
    RHS1      packing[10]  980
    RHS1      packing[11]  740
    RHS1      packing[12]  975
    RHS1      packing[13]  1073
    RHS1      packing[14]  732
    RHS1      packing[15]  902
    RHS1      packing[16]  574
    RHS1      packing[17]  862
    RHS1      packing[18]  584
    RHS1      packing[19]  886
    RHS1      packing[20]  728
    RHS1      packing[21]  949
    RHS1      packing[22]  555
    RHS1      packing[23]  832
    RHS1      packing[24]  792
    RHS1      packing[25]  658
    RHS1      packing[26]  782
    RHS1      packing[27]  492
    RHS1      packing[28]  397
    RHS1      packing[29]  676
    RHS1      packing[30]  807
    RHS1      packing[31]  663
    RHS1      packing[32]  630
    RHS1      packing[33]  775
    RHS1      packing[34]  675
    RHS1      packing[35]  650
    RHS1      packing[36]  704
    RHS1      packing[37]  831
    RHS1      packing[38]  705
    RHS1      packing[39]  620
    RHS1      packing[40]  818
    RHS1      packing[41]  721
    RHS1      packing[42]  906
    RHS1      packing[43]  691
    RHS1      packing[44]  628
    RHS1      packing[45]  618
    RHS1      packing[46]  1003
    RHS1      packing[47]  669
    RHS1      packing[48]  964
    RHS1      packing[49]  679
    RHS1      R58       5
    RHS1      R59       4
    RHS1      R60       5
    RHS1      R61       4
    RHS1      R62       5
    RHS1      R63       4
    RHS1      R64       6
    RHS1      R65       5
BOUNDS
 BV BND1      x[1]    
 BV BND1      x[2]    
 BV BND1      x[3]    
 BV BND1      x[4]    
 BV BND1      x[5]    
 BV BND1      x[6]    
 BV BND1      x[7]    
 BV BND1      x[8]    
 BV BND1      x[9]    
 BV BND1      x[10]   
 BV BND1      x[11]   
 BV BND1      x[12]   
 BV BND1      x[13]   
 BV BND1      x[14]   
 BV BND1      x[15]   
 BV BND1      x[16]   
 BV BND1      x[17]   
 BV BND1      x[18]   
 BV BND1      x[19]   
 BV BND1      x[20]   
ENDATA
